NAME: R10-280319-182647.tsp
TYPE: TSP
COMMENT: Random data
DIMENSION: 10
EDGE_WEIGHT_TYPE: EXPLICIT
EDGE_WEIGHT_FORMAT: FULL_MATRIX
DISPLAY_DATA_TYPE: NO_DISPLAY
EDGE_WEIGHT_SECTION
 0  2 73 10 59  8 78 91 64 76 
61  0 48 67 26 22 39 53 21 63 
39 40  0 22  1 52 55 61 19 72 
19 21 43  0 17 13 16 10 31 10 
 6 33 66 73  0 16 13 24 38 16 
28 13 62 98 70  0 27 18 88 42 
71  0 21 54 98 89  0  6 72 42 
32 44 34 50 15 90 29  0 46 88 
96 65 24  8 77 14 38 32  0  5 
 9 20 51 15 98 24 73 39 31  0 
EOF